p wcnf 20 58 1048575
1048575 -3 -13 0
1048575 3 0
1048575 3 13 0
1048575 -4 -14 0
1048575 -14 3 0
1048575 4 14 0
1048575 1 2 0
1048575 -1 -2 0
1048575 -1 -3 0
1048575 -1 -4 0
1048575 -2 3 4 0
1048575 -3 -2 9 0
1048575 -4 -2 10 0
1048575 -2 -9 5 0
1048575 -2 -9 7 0
1048575 -2 -9 8 0
1048575 -2 -10 6 0
1048575 -9 3 0
1048575 -9 2 0
1048575 -10 4 0
1048575 -10 2 0
1048575 -5 -2 9 10 0
1048575 -8 -2 9 0
1048575 -6 -2 9 10 0
1048575 -7 -2 9 0
1048575 -5 2 0
1048575 -6 2 0
1048575 -7 2 0
1048575 -8 2 0
1048575 -2 -3 -4 0
1048575 -2 -6 -8 -7 5 0
1048575 -2 -5 -7 -8 6 0
8 2 0
1048575 11 12 0
1048575 -11 -12 0
1048575 -11 -13 0
1048575 -11 -14 0
1048575 -12 13 14 0
1048575 -13 -12 19 0
1048575 -14 -12 20 0
1048575 -12 -19 15 0
1048575 -12 -19 17 0
1048575 -12 -19 18 0
1048575 -12 -20 16 0
1048575 -19 13 0
1048575 -19 12 0
1048575 -20 14 0
1048575 -20 12 0
1048575 -15 -12 19 20 0
1048575 -18 -12 19 0
1048575 -16 -12 19 20 0
1048575 -17 -12 19 0
1048575 -15 12 0
1048575 -16 12 0
1048575 -17 12 0
1048575 -18 12 0
1048575 -12 -13 -14 0
1048575 -12 -16 -18 -17 15 0
1048575 -12 -15 -17 -18 16 0
8 12 0
